% File represents an instance of a Composite Structure problem to be solved by a CP framework
% Created on 2025-03-25 14:06:11.009
T = 52;
n = 9;
m = 12;
edges = [(2, 1),
(5, 4),
(8, 7),
(2, 3),
(5, 6),
(8, 9),
(4, 1),
(7, 4),
(5, 2),
(8, 5),
(6, 3),
(9, 6)];
counts = [|2, 14, 14, 2,
|2, 18, 16, 2,
|2, 18, 14, 2,
|2, 18, 20, 2,
|2, 20, 22, 2,
|2, 20, 20, 2,
|2, 22, 22, 2,
|2, 22, 26, 2,
|2, 20, 22, 2|];
